598,150
875,265
1001,243
1125,476
1006,355
1001,243
935,152
510,351
567,443
624,424
829,554
822,600
694,380
923,230
505,164
453,332
681,826
681,916
977,702
822,600
576,551
567,443
415,364
681,826
810,805
801,776
624,424
342,160
448,173
598,150
951,406
1051,526
894,514
801,776
366,635
368,507
694,380
1028,229
951,406
810,805
